50

99 21 201
99 27 309
95 4 207
94 10 346
92 9 224
91 8 404
90 1 195
87 12 324
86 12 346
84 24 371
83 7 307
82 4 173
82 7 376
81 20 413
81 12 250
81 25 403
80 14 267
80 16 199
78 4 311
78 22 243
78 18 442
77 4 441
77 8 177
74 5 237
72 15 446
71 21 352
69 21 430
68 9 279
66 8 295
66 6 406
64 6 399
63 2 450
62 18 387
62 10 203
61 5 216
60 16 276
57 14 377
55 16 205
52 1 172
52 4 392
46 8 302
46 12 221
45 8 233
45 3 449
42 8 361
39 3 419
39 6 413
38 8 272
35 4 412
32 10 398
